2 51 
3 5 
26 25 
45 80 
13 62 
93 60 
54 50 
81 89 
41 38 
29 47 
67 21 
65 14 
22 93 
42 25 
48 22 
49 2 
25 52 
60 51 
78 5 
31 91 
68 24 
51 74 
27 32 
63 20 
70 93 
67 89 
66 84 
4 41 
29 98 
66 77 
72 15 
32 98 
68 92 
1 98 
97 85 
89 17 
9 92 
92 88 
25 7 
60 47 
52 79 
89 19 
63 93 
60 92 
43 78 
22 67 
45 54 
17 65 
98 19 
63 95 
